p edge 30 38 15
v 1 5
v 1 29
v 3 6 12 14
v 2 16 19
v 2 11 25
v 3 13 17 21
v 1 18
v 2 22 30
v 2 7 27
v 1 10
v 2 4 9
v 3 2 23 26
v 2 15 20
v 3 3 8 24
v 2 1 28
e 1 8
e 1 19
e 3 18
e 3 21
e 3 30
e 4 6
e 4 11
e 4 18
e 5 8
e 5 9
e 5 16
e 5 26
e 6 9
e 6 14
e 6 22
e 7 25
e 8 10
e 8 19
e 9 24
e 10 24
e 11 12
e 11 17
e 13 14
e 13 18
e 13 24
e 13 27
e 15 21
e 15 25
e 17 28
e 17 29
e 18 21
e 18 23
e 21 26
e 22 23
e 22 28
e 22 29
e 24 28
e 25 26
